(set-logic QF_NRA)
(set-info :source |Benchmarks generated from hycomp (https://es-static.fbk.eu/tools/hycomp/). BMC instances of non-linear hybrid automata taken from: Alessandro Cimatti, Sergio Mover, Stefano Tonetta, A quantifier-free SMT encoding of non-linear hybrid automata, FMCAD 2012 and Alessandro Cimatti, Sergio Mover, Stefano Tonetta, Quantier-free encoding of invariants for Hybrid Systems, Formal Methods in System Design. This instance solves a BMC problem of depth 3 and uses the quantifier free encoding encoding. Contacts: Sergio Mover (mover@fbk.eu), Stefano Tonetta (tonettas@fbk.eu), Alessandro Cimatti (cimatti@fbk.eu).|)
(set-info :smt-lib-version 2.0)
(set-info :category "industrial")
(set-info :status unsat)
;; MathSAT API call trace
;; generated on Mon Mar 19 10:39:27 2012
(declare-fun b.counter.3__AT1 () Bool)
(declare-fun b.time__AT2 () Real)
(declare-fun b.y__AT2 () Real)
(declare-fun b.EVENT.1__AT0 () Bool)
(declare-fun b.x__AT0 () Real)
(declare-fun b.time__AT3 () Real)
(declare-fun b.delta__AT2 () Real)
(declare-fun b.counter.0__AT2 () Bool)
(declare-fun b.speed_x__AT1 () Real)
(declare-fun b.x__AT2 () Real)
(declare-fun b.delta__AT3 () Real)
(declare-fun b.EVENT.0__AT2 () Bool)
(declare-fun b.counter.1__AT2 () Bool)
(declare-fun b.time__AT1 () Real)
(declare-fun g__AT0 () Real)
(declare-fun b.y__AT0 () Real)
(declare-fun b.EVENT.0__AT1 () Bool)
(declare-fun b.speed_y__AT1 () Real)
(declare-fun b.EVENT.0__AT3 () Bool)
(declare-fun b.EVENT.1__AT2 () Bool)
(declare-fun b.counter.2__AT2 () Bool)
(declare-fun b.delta__AT1 () Real)
(declare-fun b.counter.0__AT0 () Bool)
(declare-fun b.EVENT.1__AT1 () Bool)
(declare-fun b.EVENT.1__AT3 () Bool)
(declare-fun b.counter.3__AT2 () Bool)
(declare-fun b.counter.1__AT0 () Bool)
(declare-fun b.delta__AT0 () Real)
(declare-fun b.EVENT.0__AT0 () Bool)
(declare-fun b.speed_x__AT2 () Real)
(declare-fun b.x__AT1 () Real)
(declare-fun b.speed_y__AT2 () Real)
(declare-fun b.counter.2__AT3 () Bool)
(declare-fun b.counter.3__AT3 () Bool)
(declare-fun b.speed_y__AT0 () Real)
(declare-fun b.y__AT3 () Real)
(declare-fun b.counter.0__AT3 () Bool)
(declare-fun b.counter.3__AT0 () Bool)
(declare-fun b.x__AT3 () Real)
(declare-fun b.counter.1__AT3 () Bool)
(declare-fun b.event_is_timed__AT0 () Bool)
(declare-fun speed_loss__AT0 () Real)
(declare-fun b.y__AT1 () Real)
(declare-fun b.event_is_timed__AT2 () Bool)
(declare-fun b.speed_x__AT3 () Real)
(declare-fun b.event_is_timed__AT1 () Bool)
(declare-fun b.counter.0__AT1 () Bool)
(declare-fun b.event_is_timed__AT3 () Bool)
(declare-fun b.speed_x__AT0 () Real)
(declare-fun b.speed_y__AT3 () Real)
(declare-fun b.counter.1__AT1 () Bool)
(declare-fun b.time__AT0 () Real)
(declare-fun b.counter.2__AT0 () Bool)
(declare-fun b.counter.2__AT1 () Bool)
(assert (let ((.def_74 (* (- 1.0) g__AT0)))
(let ((.def_75 (* (/ 1 2) .def_74)))
(let ((.def_83 (* 2.0 .def_75)))
(let ((.def_89 (* (- 1.0) .def_83)))
(let ((.def_625 (* .def_89 b.delta__AT3)))
(let ((.def_626 (<= b.speed_y__AT3 .def_625)))
(let ((.def_624 (<= b.speed_y__AT3 0.0 )))
(let ((.def_627 (and .def_624 .def_626)))
(let ((.def_620 (* .def_83 b.delta__AT3)))
(let ((.def_621 (+ b.speed_y__AT3 .def_620)))
(let ((.def_622 (<= 0.0 .def_621)))
(let ((.def_619 (<= 0.0 b.speed_y__AT3)))
(let ((.def_623 (and .def_619 .def_622)))
(let ((.def_628 (or .def_623 .def_627)))
(let ((.def_614 (* b.speed_y__AT3 b.delta__AT3)))
(let ((.def_612 (* b.delta__AT3 b.delta__AT3)))
(let ((.def_613 (* .def_75 .def_612)))
(let ((.def_615 (+ .def_613 .def_614)))
(let ((.def_616 (+ b.y__AT3 .def_615)))
(let ((.def_617 (<= 0.0 .def_616)))
(let ((.def_602 (<= 0.0 b.y__AT3)))
(let ((.def_618 (and .def_602 .def_617)))
(let ((.def_629 (and .def_618 .def_628)))
(let ((.def_55 (<= g__AT0 10.0 )))
(let ((.def_54 (<= 8.0 g__AT0)))
(let ((.def_56 (and .def_54 .def_55)))
(let ((.def_630 (and .def_56 .def_629)))
(let ((.def_63 (<= speed_loss__AT0 (/ 1 2))))
(let ((.def_60 (<= (/ 1 10) speed_loss__AT0)))
(let ((.def_64 (and .def_60 .def_63)))
(let ((.def_631 (and .def_64 .def_630)))
(let ((.def_329 (not b.counter.0__AT2)))
(let ((.def_317 (not b.counter.1__AT2)))
(let ((.def_606 (and .def_317 .def_329)))
(let ((.def_324 (not b.counter.2__AT2)))
(let ((.def_607 (and .def_324 .def_606)))
(let ((.def_339 (not b.counter.3__AT2)))
(let ((.def_608 (and .def_339 .def_607)))
(let ((.def_65 (and .def_56 .def_64)))
(let ((.def_603 (and .def_65 .def_602)))
(let ((.def_599 (not b.EVENT.0__AT3)))
(let ((.def_597 (not b.EVENT.1__AT3)))
(let ((.def_600 (or .def_597 .def_599)))
(let ((.def_6 (not b.counter.0__AT3)))
(let ((.def_4 (not b.counter.1__AT3)))
(let ((.def_590 (or .def_4 .def_6)))
(let ((.def_594 (or b.counter.3__AT3 .def_590)))
(let ((.def_591 (or b.counter.2__AT3 .def_590)))
(let ((.def_9 (not b.counter.2__AT3)))
(let ((.def_589 (or .def_6 .def_9)))
(let ((.def_592 (and .def_589 .def_591)))
(let ((.def_12 (not b.counter.3__AT3)))
(let ((.def_593 (or .def_12 .def_592)))
(let ((.def_595 (and .def_593 .def_594)))
(let ((.def_601 (and .def_595 .def_600)))
(let ((.def_604 (and .def_601 .def_603)))
(let ((.def_584 (<= 0.0 b.delta__AT2)))
(let ((.def_427 (not b.EVENT.0__AT2)))
(let ((.def_425 (not b.EVENT.1__AT2)))
(let ((.def_487 (and .def_425 .def_427)))
(let ((.def_488 (not .def_487)))
(let ((.def_585 (or .def_488 .def_584)))
(let ((.def_586 (or b.EVENT.1__AT2 .def_585)))
(let ((.def_533 (= b.counter.0__AT3 b.counter.0__AT2)))
(let ((.def_531 (= b.counter.1__AT3 b.counter.1__AT2)))
(let ((.def_529 (= b.counter.2__AT3 b.counter.2__AT2)))
(let ((.def_528 (= b.counter.3__AT3 b.counter.3__AT2)))
(let ((.def_530 (and .def_528 .def_529)))
(let ((.def_532 (and .def_530 .def_531)))
(let ((.def_534 (and .def_532 .def_533)))
(let ((.def_581 (or .def_488 .def_534)))
(let ((.def_582 (or b.EVENT.1__AT2 .def_581)))
(let ((.def_541 (= b.x__AT2 b.x__AT3)))
(let ((.def_538 (= b.y__AT2 b.y__AT3)))
(let ((.def_575 (and .def_538 .def_541)))
(let ((.def_468 (= b.speed_x__AT2 b.speed_x__AT3)))
(let ((.def_576 (and .def_468 .def_575)))
(let ((.def_527 (= b.speed_y__AT2 b.speed_y__AT3)))
(let ((.def_577 (and .def_527 .def_576)))
(let ((.def_572 (= b.delta__AT2 0.0 )))
(let ((.def_573 (and .def_487 .def_572)))
(let ((.def_574 (not .def_573)))
(let ((.def_578 (or .def_574 .def_577)))
(let ((.def_579 (or b.EVENT.1__AT2 .def_578)))
(let ((.def_552 (= b.time__AT2 b.time__AT3)))
(let ((.def_564 (and .def_541 .def_552)))
(let ((.def_565 (and .def_538 .def_564)))
(let ((.def_566 (and .def_468 .def_565)))
(let ((.def_567 (and .def_527 .def_566)))
(let ((.def_568 (and .def_534 .def_567)))
(let ((.def_569 (or .def_425 .def_568)))
(let ((.def_555 (* (- 1.0) b.time__AT3)))
(let ((.def_558 (+ b.delta__AT2 .def_555)))
(let ((.def_559 (+ b.time__AT2 .def_558)))
(let ((.def_560 (= .def_559 0.0 )))
(let ((.def_561 (or .def_488 .def_560)))
(let ((.def_562 (or b.EVENT.1__AT2 .def_561)))
(let ((.def_553 (or .def_487 .def_552)))
(let ((.def_554 (or b.EVENT.1__AT2 .def_553)))
(let ((.def_563 (and .def_554 .def_562)))
(let ((.def_570 (and .def_563 .def_569)))
(let ((.def_548 (= .def_488 b.event_is_timed__AT3)))
(let ((.def_546 (= b.event_is_timed__AT2 .def_487)))
(let ((.def_549 (and .def_546 .def_548)))
(let ((.def_535 (and .def_527 .def_534)))
(let ((.def_447 (<= 0.0 b.speed_y__AT2)))
(let ((.def_491 (not .def_447)))
(let ((.def_490 (= b.y__AT2 0.0 )))
(let ((.def_492 (and .def_490 .def_491)))
(let ((.def_536 (or .def_492 .def_535)))
(let ((.def_504 (or .def_6 b.counter.0__AT2)))
(let ((.def_503 (or b.counter.0__AT3 .def_329)))
(let ((.def_505 (and .def_503 .def_504)))
(let ((.def_506 (and .def_4 .def_505)))
(let ((.def_507 (or b.counter.1__AT2 .def_506)))
(let ((.def_502 (or b.counter.1__AT3 .def_317)))
(let ((.def_508 (and .def_502 .def_507)))
(let ((.def_519 (and .def_9 .def_508)))
(let ((.def_520 (or b.counter.2__AT2 .def_519)))
(let ((.def_514 (and .def_4 .def_329)))
(let ((.def_515 (or b.counter.1__AT2 .def_514)))
(let ((.def_516 (and .def_502 .def_515)))
(let ((.def_517 (and b.counter.2__AT3 .def_516)))
(let ((.def_518 (or .def_324 .def_517)))
(let ((.def_521 (and .def_518 .def_520)))
(let ((.def_522 (and b.counter.3__AT3 .def_521)))
(let ((.def_523 (or b.counter.3__AT2 .def_522)))
(let ((.def_509 (and b.counter.2__AT3 .def_508)))
(let ((.def_510 (or b.counter.2__AT2 .def_509)))
(let ((.def_498 (or b.counter.1__AT3 b.counter.1__AT2)))
(let ((.def_496 (and .def_4 b.counter.0__AT3)))
(let ((.def_497 (or .def_317 .def_496)))
(let ((.def_499 (and .def_497 .def_498)))
(let ((.def_500 (and .def_9 .def_499)))
(let ((.def_501 (or .def_324 .def_500)))
(let ((.def_511 (and .def_501 .def_510)))
(let ((.def_512 (and .def_12 .def_511)))
(let ((.def_513 (or .def_339 .def_512)))
(let ((.def_524 (and .def_513 .def_523)))
(let ((.def_292 (* (- 1.0) b.speed_y__AT2)))
(let ((.def_134 (* (- 1.0) speed_loss__AT0)))
(let ((.def_135 (+ 1.0 .def_134)))
(let ((.def_494 (* .def_135 .def_292)))
(let ((.def_495 (= b.speed_y__AT3 .def_494)))
(let ((.def_525 (and .def_495 .def_524)))
(let ((.def_493 (not .def_492)))
(let ((.def_526 (or .def_493 .def_525)))
(let ((.def_537 (and .def_526 .def_536)))
(let ((.def_539 (and .def_537 .def_538)))
(let ((.def_540 (and .def_468 .def_539)))
(let ((.def_542 (and .def_540 .def_541)))
(let ((.def_543 (or .def_487 .def_542)))
(let ((.def_544 (or b.EVENT.1__AT2 .def_543)))
(let ((.def_478 (* (- 1.0) b.y__AT3)))
(let ((.def_442 (* b.speed_y__AT2 b.delta__AT2)))
(let ((.def_482 (+ .def_442 .def_478)))
(let ((.def_440 (* b.delta__AT2 b.delta__AT2)))
(let ((.def_441 (* .def_75 .def_440)))
(let ((.def_483 (+ .def_441 .def_482)))
(let ((.def_484 (+ b.y__AT2 .def_483)))
(let ((.def_485 (= .def_484 0.0 )))
(let ((.def_472 (* (- 1.0) b.speed_y__AT3)))
(let ((.def_470 (* .def_74 b.delta__AT2)))
(let ((.def_473 (+ .def_470 .def_472)))
(let ((.def_474 (+ b.speed_y__AT2 .def_473)))
(let ((.def_475 (= .def_474 0.0 )))
(let ((.def_463 (* (- 1.0) b.x__AT3)))
(let ((.def_461 (* b.speed_x__AT2 b.delta__AT2)))
(let ((.def_464 (+ .def_461 .def_463)))
(let ((.def_465 (+ b.x__AT2 .def_464)))
(let ((.def_466 (= .def_465 0.0 )))
(let ((.def_469 (and .def_466 .def_468)))
(let ((.def_476 (and .def_469 .def_475)))
(let ((.def_486 (and .def_476 .def_485)))
(let ((.def_489 (or .def_486 .def_488)))
(let ((.def_545 (and .def_489 .def_544)))
(let ((.def_550 (and .def_545 .def_549)))
(let ((.def_571 (and .def_550 .def_570)))
(let ((.def_580 (and .def_571 .def_579)))
(let ((.def_583 (and .def_580 .def_582)))
(let ((.def_587 (and .def_583 .def_586)))
(let ((.def_588 (and .def_425 .def_587)))
(let ((.def_605 (and .def_588 .def_604)))
(let ((.def_609 (and .def_605 .def_608)))
(let ((.def_453 (* .def_89 b.delta__AT2)))
(let ((.def_454 (<= b.speed_y__AT2 .def_453)))
(let ((.def_452 (<= b.speed_y__AT2 0.0 )))
(let ((.def_455 (and .def_452 .def_454)))
(let ((.def_448 (* .def_83 b.delta__AT2)))
(let ((.def_449 (+ b.speed_y__AT2 .def_448)))
(let ((.def_450 (<= 0.0 .def_449)))
(let ((.def_451 (and .def_447 .def_450)))
(let ((.def_456 (or .def_451 .def_455)))
(let ((.def_443 (+ .def_441 .def_442)))
(let ((.def_444 (+ b.y__AT2 .def_443)))
(let ((.def_445 (<= 0.0 .def_444)))
(let ((.def_430 (<= 0.0 b.y__AT2)))
(let ((.def_446 (and .def_430 .def_445)))
(let ((.def_457 (and .def_446 .def_456)))
(let ((.def_458 (and .def_56 .def_457)))
(let ((.def_459 (and .def_64 .def_458)))
(let ((.def_152 (not b.counter.0__AT1)))
(let ((.def_140 (not b.counter.1__AT1)))
(let ((.def_434 (and .def_140 .def_152)))
(let ((.def_147 (not b.counter.2__AT1)))
(let ((.def_435 (and .def_147 .def_434)))
(let ((.def_162 (not b.counter.3__AT1)))
(let ((.def_436 (and .def_162 .def_435)))
(let ((.def_431 (and .def_65 .def_430)))
(let ((.def_428 (or .def_425 .def_427)))
(let ((.def_418 (or .def_317 .def_329)))
(let ((.def_422 (or b.counter.3__AT2 .def_418)))
(let ((.def_419 (or b.counter.2__AT2 .def_418)))
(let ((.def_417 (or .def_324 .def_329)))
(let ((.def_420 (and .def_417 .def_419)))
(let ((.def_421 (or .def_339 .def_420)))
(let ((.def_423 (and .def_421 .def_422)))
(let ((.def_429 (and .def_423 .def_428)))
(let ((.def_432 (and .def_429 .def_431)))
(let ((.def_412 (<= 0.0 b.delta__AT1)))
(let ((.def_250 (not b.EVENT.0__AT1)))
(let ((.def_248 (not b.EVENT.1__AT1)))
(let ((.def_307 (and .def_248 .def_250)))
(let ((.def_308 (not .def_307)))
(let ((.def_413 (or .def_308 .def_412)))
(let ((.def_414 (or b.EVENT.1__AT1 .def_413)))
(let ((.def_361 (= b.counter.0__AT1 b.counter.0__AT2)))
(let ((.def_359 (= b.counter.1__AT1 b.counter.1__AT2)))
(let ((.def_357 (= b.counter.2__AT1 b.counter.2__AT2)))
(let ((.def_356 (= b.counter.3__AT1 b.counter.3__AT2)))
(let ((.def_358 (and .def_356 .def_357)))
(let ((.def_360 (and .def_358 .def_359)))
(let ((.def_362 (and .def_360 .def_361)))
(let ((.def_409 (or .def_308 .def_362)))
(let ((.def_410 (or b.EVENT.1__AT1 .def_409)))
(let ((.def_369 (= b.x__AT1 b.x__AT2)))
(let ((.def_366 (= b.y__AT1 b.y__AT2)))
(let ((.def_403 (and .def_366 .def_369)))
(let ((.def_288 (= b.speed_x__AT1 b.speed_x__AT2)))
(let ((.def_404 (and .def_288 .def_403)))
(let ((.def_355 (= b.speed_y__AT1 b.speed_y__AT2)))
(let ((.def_405 (and .def_355 .def_404)))
(let ((.def_400 (= b.delta__AT1 0.0 )))
(let ((.def_401 (and .def_307 .def_400)))
(let ((.def_402 (not .def_401)))
(let ((.def_406 (or .def_402 .def_405)))
(let ((.def_407 (or b.EVENT.1__AT1 .def_406)))
(let ((.def_380 (= b.time__AT1 b.time__AT2)))
(let ((.def_392 (and .def_369 .def_380)))
(let ((.def_393 (and .def_366 .def_392)))
(let ((.def_394 (and .def_288 .def_393)))
(let ((.def_395 (and .def_355 .def_394)))
(let ((.def_396 (and .def_362 .def_395)))
(let ((.def_397 (or .def_248 .def_396)))
(let ((.def_383 (* (- 1.0) b.time__AT2)))
(let ((.def_386 (+ b.delta__AT1 .def_383)))
(let ((.def_387 (+ b.time__AT1 .def_386)))
(let ((.def_388 (= .def_387 0.0 )))
(let ((.def_389 (or .def_308 .def_388)))
(let ((.def_390 (or b.EVENT.1__AT1 .def_389)))
(let ((.def_381 (or .def_307 .def_380)))
(let ((.def_382 (or b.EVENT.1__AT1 .def_381)))
(let ((.def_391 (and .def_382 .def_390)))
(let ((.def_398 (and .def_391 .def_397)))
(let ((.def_376 (= .def_308 b.event_is_timed__AT2)))
(let ((.def_374 (= b.event_is_timed__AT1 .def_307)))
(let ((.def_377 (and .def_374 .def_376)))
(let ((.def_363 (and .def_355 .def_362)))
(let ((.def_267 (<= 0.0 b.speed_y__AT1)))
(let ((.def_311 (not .def_267)))
(let ((.def_310 (= b.y__AT1 0.0 )))
(let ((.def_312 (and .def_310 .def_311)))
(let ((.def_364 (or .def_312 .def_363)))
(let ((.def_330 (or b.counter.0__AT1 .def_329)))
(let ((.def_328 (or .def_152 b.counter.0__AT2)))
(let ((.def_331 (and .def_328 .def_330)))
(let ((.def_332 (and .def_317 .def_331)))
(let ((.def_333 (or b.counter.1__AT1 .def_332)))
(let ((.def_327 (or .def_140 b.counter.1__AT2)))
(let ((.def_334 (and .def_327 .def_333)))
(let ((.def_347 (and .def_324 .def_334)))
(let ((.def_348 (or b.counter.2__AT1 .def_347)))
(let ((.def_342 (and .def_152 .def_317)))
(let ((.def_343 (or b.counter.1__AT1 .def_342)))
(let ((.def_344 (and .def_327 .def_343)))
(let ((.def_345 (and b.counter.2__AT2 .def_344)))
(let ((.def_346 (or .def_147 .def_345)))
(let ((.def_349 (and .def_346 .def_348)))
(let ((.def_350 (and b.counter.3__AT2 .def_349)))
(let ((.def_351 (or b.counter.3__AT1 .def_350)))
(let ((.def_335 (and b.counter.2__AT2 .def_334)))
(let ((.def_336 (or b.counter.2__AT1 .def_335)))
(let ((.def_321 (or b.counter.1__AT1 b.counter.1__AT2)))
(let ((.def_319 (and .def_317 b.counter.0__AT2)))
(let ((.def_320 (or .def_140 .def_319)))
(let ((.def_322 (and .def_320 .def_321)))
(let ((.def_325 (and .def_322 .def_324)))
(let ((.def_326 (or .def_147 .def_325)))
(let ((.def_337 (and .def_326 .def_336)))
(let ((.def_340 (and .def_337 .def_339)))
(let ((.def_341 (or .def_162 .def_340)))
(let ((.def_352 (and .def_341 .def_351)))
(let ((.def_113 (* (- 1.0) b.speed_y__AT1)))
(let ((.def_314 (* .def_113 .def_135)))
(let ((.def_315 (= b.speed_y__AT2 .def_314)))
(let ((.def_353 (and .def_315 .def_352)))
(let ((.def_313 (not .def_312)))
(let ((.def_354 (or .def_313 .def_353)))
(let ((.def_365 (and .def_354 .def_364)))
(let ((.def_367 (and .def_365 .def_366)))
(let ((.def_368 (and .def_288 .def_367)))
(let ((.def_370 (and .def_368 .def_369)))
(let ((.def_371 (or .def_307 .def_370)))
(let ((.def_372 (or b.EVENT.1__AT1 .def_371)))
(let ((.def_298 (* (- 1.0) b.y__AT2)))
(let ((.def_262 (* b.speed_y__AT1 b.delta__AT1)))
(let ((.def_302 (+ .def_262 .def_298)))
(let ((.def_260 (* b.delta__AT1 b.delta__AT1)))
(let ((.def_261 (* .def_75 .def_260)))
(let ((.def_303 (+ .def_261 .def_302)))
(let ((.def_304 (+ b.y__AT1 .def_303)))
(let ((.def_305 (= .def_304 0.0 )))
(let ((.def_290 (* .def_74 b.delta__AT1)))
(let ((.def_293 (+ .def_290 .def_292)))
(let ((.def_294 (+ b.speed_y__AT1 .def_293)))
(let ((.def_295 (= .def_294 0.0 )))
(let ((.def_283 (* (- 1.0) b.x__AT2)))
(let ((.def_281 (* b.speed_x__AT1 b.delta__AT1)))
(let ((.def_284 (+ .def_281 .def_283)))
(let ((.def_285 (+ b.x__AT1 .def_284)))
(let ((.def_286 (= .def_285 0.0 )))
(let ((.def_289 (and .def_286 .def_288)))
(let ((.def_296 (and .def_289 .def_295)))
(let ((.def_306 (and .def_296 .def_305)))
(let ((.def_309 (or .def_306 .def_308)))
(let ((.def_373 (and .def_309 .def_372)))
(let ((.def_378 (and .def_373 .def_377)))
(let ((.def_399 (and .def_378 .def_398)))
(let ((.def_408 (and .def_399 .def_407)))
(let ((.def_411 (and .def_408 .def_410)))
(let ((.def_415 (and .def_411 .def_414)))
(let ((.def_416 (and .def_248 .def_415)))
(let ((.def_433 (and .def_416 .def_432)))
(let ((.def_437 (and .def_433 .def_436)))
(let ((.def_273 (* .def_89 b.delta__AT1)))
(let ((.def_274 (<= b.speed_y__AT1 .def_273)))
(let ((.def_272 (<= b.speed_y__AT1 0.0 )))
(let ((.def_275 (and .def_272 .def_274)))
(let ((.def_268 (* .def_83 b.delta__AT1)))
(let ((.def_269 (+ b.speed_y__AT1 .def_268)))
(let ((.def_270 (<= 0.0 .def_269)))
(let ((.def_271 (and .def_267 .def_270)))
(let ((.def_276 (or .def_271 .def_275)))
(let ((.def_263 (+ .def_261 .def_262)))
(let ((.def_264 (+ b.y__AT1 .def_263)))
(let ((.def_265 (<= 0.0 .def_264)))
(let ((.def_253 (<= 0.0 b.y__AT1)))
(let ((.def_266 (and .def_253 .def_265)))
(let ((.def_277 (and .def_266 .def_276)))
(let ((.def_278 (and .def_56 .def_277)))
(let ((.def_279 (and .def_64 .def_278)))
(let ((.def_254 (and .def_65 .def_253)))
(let ((.def_251 (or .def_248 .def_250)))
(let ((.def_241 (or .def_140 .def_152)))
(let ((.def_245 (or b.counter.3__AT1 .def_241)))
(let ((.def_242 (or b.counter.2__AT1 .def_241)))
(let ((.def_240 (or .def_147 .def_152)))
(let ((.def_243 (and .def_240 .def_242)))
(let ((.def_244 (or .def_162 .def_243)))
(let ((.def_246 (and .def_244 .def_245)))
(let ((.def_252 (and .def_246 .def_251)))
(let ((.def_255 (and .def_252 .def_254)))
(let ((.def_235 (<= 0.0 b.delta__AT0)))
(let ((.def_49 (not b.EVENT.0__AT0)))
(let ((.def_47 (not b.EVENT.1__AT0)))
(let ((.def_127 (and .def_47 .def_49)))
(let ((.def_128 (not .def_127)))
(let ((.def_236 (or .def_128 .def_235)))
(let ((.def_237 (or b.EVENT.1__AT0 .def_236)))
(let ((.def_184 (= b.counter.0__AT0 b.counter.0__AT1)))
(let ((.def_182 (= b.counter.1__AT0 b.counter.1__AT1)))
(let ((.def_180 (= b.counter.2__AT0 b.counter.2__AT1)))
(let ((.def_179 (= b.counter.3__AT0 b.counter.3__AT1)))
(let ((.def_181 (and .def_179 .def_180)))
(let ((.def_183 (and .def_181 .def_182)))
(let ((.def_185 (and .def_183 .def_184)))
(let ((.def_232 (or .def_128 .def_185)))
(let ((.def_233 (or b.EVENT.1__AT0 .def_232)))
(let ((.def_192 (= b.x__AT1 b.x__AT0)))
(let ((.def_189 (= b.y__AT0 b.y__AT1)))
(let ((.def_226 (and .def_189 .def_192)))
(let ((.def_109 (= b.speed_x__AT0 b.speed_x__AT1)))
(let ((.def_227 (and .def_109 .def_226)))
(let ((.def_178 (= b.speed_y__AT0 b.speed_y__AT1)))
(let ((.def_228 (and .def_178 .def_227)))
(let ((.def_223 (= b.delta__AT0 0.0 )))
(let ((.def_224 (and .def_127 .def_223)))
(let ((.def_225 (not .def_224)))
(let ((.def_229 (or .def_225 .def_228)))
(let ((.def_230 (or b.EVENT.1__AT0 .def_229)))
(let ((.def_203 (= b.time__AT0 b.time__AT1)))
(let ((.def_215 (and .def_192 .def_203)))
(let ((.def_216 (and .def_189 .def_215)))
(let ((.def_217 (and .def_109 .def_216)))
(let ((.def_218 (and .def_178 .def_217)))
(let ((.def_219 (and .def_185 .def_218)))
(let ((.def_220 (or .def_47 .def_219)))
(let ((.def_206 (* (- 1.0) b.time__AT1)))
(let ((.def_209 (+ b.delta__AT0 .def_206)))
(let ((.def_210 (+ b.time__AT0 .def_209)))
(let ((.def_211 (= .def_210 0.0 )))
(let ((.def_212 (or .def_128 .def_211)))
(let ((.def_213 (or b.EVENT.1__AT0 .def_212)))
(let ((.def_204 (or .def_127 .def_203)))
(let ((.def_205 (or b.EVENT.1__AT0 .def_204)))
(let ((.def_214 (and .def_205 .def_213)))
(let ((.def_221 (and .def_214 .def_220)))
(let ((.def_199 (= .def_128 b.event_is_timed__AT1)))
(let ((.def_197 (= b.event_is_timed__AT0 .def_127)))
(let ((.def_200 (and .def_197 .def_199)))
(let ((.def_186 (and .def_178 .def_185)))
(let ((.def_82 (<= 0.0 b.speed_y__AT0)))
(let ((.def_131 (not .def_82)))
(let ((.def_130 (= b.y__AT0 0.0 )))
(let ((.def_132 (and .def_130 .def_131)))
(let ((.def_187 (or .def_132 .def_186)))
(let ((.def_153 (or b.counter.0__AT0 .def_152)))
(let ((.def_30 (not b.counter.0__AT0)))
(let ((.def_151 (or .def_30 b.counter.0__AT1)))
(let ((.def_154 (and .def_151 .def_153)))
(let ((.def_155 (and .def_140 .def_154)))
(let ((.def_156 (or b.counter.1__AT0 .def_155)))
(let ((.def_28 (not b.counter.1__AT0)))
(let ((.def_150 (or .def_28 b.counter.1__AT1)))
(let ((.def_157 (and .def_150 .def_156)))
(let ((.def_170 (and .def_147 .def_157)))
(let ((.def_171 (or b.counter.2__AT0 .def_170)))
(let ((.def_165 (and .def_30 .def_140)))
(let ((.def_166 (or b.counter.1__AT0 .def_165)))
(let ((.def_167 (and .def_150 .def_166)))
(let ((.def_168 (and b.counter.2__AT1 .def_167)))
(let ((.def_33 (not b.counter.2__AT0)))
(let ((.def_169 (or .def_33 .def_168)))
(let ((.def_172 (and .def_169 .def_171)))
(let ((.def_173 (and b.counter.3__AT1 .def_172)))
(let ((.def_174 (or b.counter.3__AT0 .def_173)))
(let ((.def_158 (and b.counter.2__AT1 .def_157)))
(let ((.def_159 (or b.counter.2__AT0 .def_158)))
(let ((.def_144 (or b.counter.1__AT0 b.counter.1__AT1)))
(let ((.def_142 (and .def_140 b.counter.0__AT1)))
(let ((.def_143 (or .def_28 .def_142)))
(let ((.def_145 (and .def_143 .def_144)))
(let ((.def_148 (and .def_145 .def_147)))
(let ((.def_149 (or .def_33 .def_148)))
(let ((.def_160 (and .def_149 .def_159)))
(let ((.def_163 (and .def_160 .def_162)))
(let ((.def_36 (not b.counter.3__AT0)))
(let ((.def_164 (or .def_36 .def_163)))
(let ((.def_175 (and .def_164 .def_174)))
(let ((.def_136 (* (- 1.0) b.speed_y__AT0)))
(let ((.def_137 (* .def_135 .def_136)))
(let ((.def_138 (= b.speed_y__AT1 .def_137)))
(let ((.def_176 (and .def_138 .def_175)))
(let ((.def_133 (not .def_132)))
(let ((.def_177 (or .def_133 .def_176)))
(let ((.def_188 (and .def_177 .def_187)))
(let ((.def_190 (and .def_188 .def_189)))
(let ((.def_191 (and .def_109 .def_190)))
(let ((.def_193 (and .def_191 .def_192)))
(let ((.def_194 (or .def_127 .def_193)))
(let ((.def_195 (or b.EVENT.1__AT0 .def_194)))
(let ((.def_119 (* (- 1.0) b.y__AT1)))
(let ((.def_77 (* b.speed_y__AT0 b.delta__AT0)))
(let ((.def_122 (+ .def_77 .def_119)))
(let ((.def_72 (* b.delta__AT0 b.delta__AT0)))
(let ((.def_76 (* .def_72 .def_75)))
(let ((.def_123 (+ .def_76 .def_122)))
(let ((.def_124 (+ b.y__AT0 .def_123)))
(let ((.def_125 (= .def_124 0.0 )))
(let ((.def_111 (* b.delta__AT0 .def_74)))
(let ((.def_114 (+ .def_111 .def_113)))
(let ((.def_115 (+ b.speed_y__AT0 .def_114)))
(let ((.def_116 (= .def_115 0.0 )))
(let ((.def_101 (* (- 1.0) b.x__AT1)))
(let ((.def_105 (+ .def_101 b.x__AT0)))
(let ((.def_99 (* b.delta__AT0 b.speed_x__AT0)))
(let ((.def_106 (+ .def_99 .def_105)))
(let ((.def_107 (= .def_106 0.0 )))
(let ((.def_110 (and .def_107 .def_109)))
(let ((.def_117 (and .def_110 .def_116)))
(let ((.def_126 (and .def_117 .def_125)))
(let ((.def_129 (or .def_126 .def_128)))
(let ((.def_196 (and .def_129 .def_195)))
(let ((.def_201 (and .def_196 .def_200)))
(let ((.def_222 (and .def_201 .def_221)))
(let ((.def_231 (and .def_222 .def_230)))
(let ((.def_234 (and .def_231 .def_233)))
(let ((.def_238 (and .def_234 .def_237)))
(let ((.def_239 (and .def_47 .def_238)))
(let ((.def_256 (and .def_239 .def_255)))
(let ((.def_31 (and .def_28 .def_30)))
(let ((.def_34 (and .def_31 .def_33)))
(let ((.def_37 (and .def_34 .def_36)))
(let ((.def_257 (and .def_37 .def_256)))
(let ((.def_90 (* b.delta__AT0 .def_89)))
(let ((.def_91 (<= b.speed_y__AT0 .def_90)))
(let ((.def_88 (<= b.speed_y__AT0 0.0 )))
(let ((.def_92 (and .def_88 .def_91)))
(let ((.def_84 (* b.delta__AT0 .def_83)))
(let ((.def_85 (+ b.speed_y__AT0 .def_84)))
(let ((.def_86 (<= 0.0 .def_85)))
(let ((.def_87 (and .def_82 .def_86)))
(let ((.def_93 (or .def_87 .def_92)))
(let ((.def_78 (+ .def_76 .def_77)))
(let ((.def_79 (+ b.y__AT0 .def_78)))
(let ((.def_80 (<= 0.0 .def_79)))
(let ((.def_66 (<= 0.0 b.y__AT0)))
(let ((.def_81 (and .def_66 .def_80)))
(let ((.def_94 (and .def_81 .def_93)))
(let ((.def_95 (and .def_56 .def_94)))
(let ((.def_96 (and .def_64 .def_95)))
(let ((.def_67 (and .def_65 .def_66)))
(let ((.def_50 (or .def_47 .def_49)))
(let ((.def_40 (or .def_28 .def_30)))
(let ((.def_44 (or b.counter.3__AT0 .def_40)))
(let ((.def_41 (or b.counter.2__AT0 .def_40)))
(let ((.def_39 (or .def_30 .def_33)))
(let ((.def_42 (and .def_39 .def_41)))
(let ((.def_43 (or .def_36 .def_42)))
(let ((.def_45 (and .def_43 .def_44)))
(let ((.def_51 (and .def_45 .def_50)))
(let ((.def_68 (and .def_51 .def_67)))
(let ((.def_25 (= b.speed_y__AT0 0.0 )))
(let ((.def_22 (= b.y__AT0 10.0 )))
(let ((.def_17 (= b.time__AT0 0.0 )))
(let ((.def_19 (and .def_17 b.event_is_timed__AT0)))
(let ((.def_23 (and .def_19 .def_22)))
(let ((.def_26 (and .def_23 .def_25)))
(let ((.def_38 (and .def_26 .def_37)))
(let ((.def_69 (and .def_38 .def_68)))
(let ((.def_7 (and .def_4 .def_6)))
(let ((.def_10 (and .def_7 .def_9)))
(let ((.def_13 (and .def_10 .def_12)))
(let ((.def_14 (not .def_13)))
(let ((.def_70 (and .def_14 .def_69)))
(let ((.def_97 (and .def_70 .def_96)))
(let ((.def_258 (and .def_97 .def_257)))
(let ((.def_280 (and .def_258 .def_279)))
(let ((.def_438 (and .def_280 .def_437)))
(let ((.def_460 (and .def_438 .def_459)))
(let ((.def_610 (and .def_460 .def_609)))
(let ((.def_632 (and .def_610 .def_631)))
.def_632)))))))))))))))))))))))))))))))))))))))))))))))))))))))))))))))))))))))))))))))))))))))))))))))))))))))))))))))))))))))))))))))))))))))))))))))))))))))))))))))))))))))))))))))))))))))))))))))))))))))))))))))))))))))))))))))))))))))))))))))))))))))))))))))))))))))))))))))))))))))))))))))))))))))))))))))))))))))))))))))))))))))))))))))))))))))))))))))))))))))))))))))))))))))))))))))))))))))))))))))))))))))))))))))))))))))))))))))))))))))))))))))))))))))))))))))))))))))))))))))))))))))))))))))))))))))))))))))))))))))))))))))))))))))))))))))))))))))))
(check-sat)
(exit)
